(declare-fun var76923 () (_ BitVec 64))
(declare-fun ARGNAME_i1_NAMEEND_DIM () (_ BitVec 64))
(declare-fun ARGNAME_expand1_NAMEEND_LEN () (_ BitVec 64))
(declare-fun var76924 () (_ BitVec 64))
(declare-fun ARGNAME_unroll_dim_NAMEEND () (_ BitVec 64))
(declare-fun var76925 () (_ BitVec 64))
(declare-fun temp682_1 () (_ BitVec 64))
(declare-fun var76926 () (_ BitVec 64))
(declare-fun var76927 () (_ BitVec 64))
(declare-fun temp682_2 () (_ BitVec 64))
(declare-fun temp682_3 () (_ BitVec 64))
(declare-fun var76928 () (_ BitVec 64))
(declare-fun k!0 () (_ BitVec 64))
(declare-fun k!1 () Bool)
(declare-fun var269666 () (_ BitVec 64))
(declare-fun temp682_4 () (_ BitVec 64))
(declare-fun var269695 () (_ BitVec 64))
(declare-fun temp682_5 () (_ BitVec 64))
(declare-fun temp682_7 () (_ BitVec 64))
(declare-fun temp682_6 () (_ BitVec 64))
(declare-fun temp682_9 () (_ BitVec 64))
(declare-fun temp682_8 () (_ BitVec 64))
(declare-fun temp682_10 () (_ BitVec 64))
(declare-fun var862370 () (_ BitVec 64))
(declare-fun var927917 () (_ BitVec 64))
(declare-fun temp682_11 () (_ BitVec 64))
(declare-fun var1713223 () (_ BitVec 64))
(declare-fun var2104674 () (_ BitVec 64))
(declare-fun temp682_12 () (_ BitVec 64))
(declare-fun var2104703 () (_ BitVec 64))
(declare-fun temp682_13 () (_ BitVec 64))
(declare-fun temp682_15 () (_ BitVec 64))
(declare-fun temp682_14 () (_ BitVec 64))
(declare-fun temp682_17 () (_ BitVec 64))
(declare-fun temp682_16 () (_ BitVec 64))
(declare-fun temp682_18 () (_ BitVec 64))
(declare-fun var2697378 () (_ BitVec 64))
(declare-fun var2762925 () (_ BitVec 64))
(declare-fun temp682_19 () (_ BitVec 64))
(declare-fun var3548231 () (_ BitVec 64))
(declare-fun var3939682 () (_ BitVec 64))
(declare-fun temp682_20 () (_ BitVec 64))
(declare-fun var3939711 () (_ BitVec 64))
(declare-fun temp682_21 () (_ BitVec 64))
(declare-fun temp682_23 () (_ BitVec 64))
(declare-fun temp682_22 () (_ BitVec 64))
(declare-fun temp682_25 () (_ BitVec 64))
(declare-fun temp682_24 () (_ BitVec 64))
(declare-fun temp682_26 () (_ BitVec 64))
(declare-fun var4532386 () (_ BitVec 64))
(declare-fun var4597933 () (_ BitVec 64))
(declare-fun temp682_27 () (_ BitVec 64))
(declare-fun var5383239 () (_ BitVec 64))
(declare-fun var5774690 () (_ BitVec 64))
(declare-fun temp682_28 () (_ BitVec 64))
(declare-fun var5774719 () (_ BitVec 64))
(declare-fun temp682_29 () (_ BitVec 64))
(declare-fun temp682_31 () (_ BitVec 64))
(declare-fun temp682_30 () (_ BitVec 64))
(declare-fun temp682_33 () (_ BitVec 64))
(declare-fun temp682_32 () (_ BitVec 64))
(declare-fun temp682_34 () (_ BitVec 64))
(declare-fun var6367394 () (_ BitVec 64))
(declare-fun var6432941 () (_ BitVec 64))
(declare-fun temp682_35 () (_ BitVec 64))
(declare-fun var7218247 () (_ BitVec 64))
(declare-fun var8461836 () (_ BitVec 64))
(declare-fun temp682_37 () (_ BitVec 64))
(declare-fun temp682_36 () (_ BitVec 64))
(declare-fun var8524787 () (_ BitVec 64))
(declare-fun var8524788 () (_ BitVec 64))
(declare-fun temp682_38 () (_ BitVec 64))
(declare-fun temp682_39 () (_ BitVec 64))
(declare-fun var8594453 () (_ BitVec 64))
(declare-fun var8660000 () (_ BitVec 64))
(declare-fun var8461854 () (_ BitVec 64))
(declare-fun temp682_40 () (_ BitVec 64))
(declare-fun var77094 () (_ BitVec 64))
(declare-fun temp682_41 () (_ BitVec 64))
(declare-fun var77135 () (_ BitVec 64))
(declare-fun var77169 () (_ BitVec 64))
(declare-fun var77223 () (_ BitVec 64))
(declare-fun temp682_42 () (_ BitVec 64))
(declare-fun var11608541 () (_ BitVec 64))
(declare-fun temp682_43 () (_ BitVec 64))
(declare-fun ARGNAME_i1_NAMEEND_NUMELEMENT () (_ BitVec 64))
(declare-fun var77268 () (_ BitVec 64))
(declare-fun temp682_44 () (_ BitVec 64))
(declare-fun temp682_45 () (_ BitVec 64))
(declare-fun ARGNAME_i2_NAMEEND_NUMELEMENT () (_ BitVec 64))
(declare-fun var77272 () (_ BitVec 64))
(declare-fun temp682_46 () (_ BitVec 64))
(declare-fun temp682_47 () (_ BitVec 64))
(declare-fun ARGNAME_i3_NAMEEND_NUMELEMENT () (_ BitVec 64))
(declare-fun var77276 () (_ BitVec 64))
(declare-fun temp682_48 () (_ BitVec 64))
(declare-fun temp682_50 () (_ BitVec 64))
(declare-fun temp682_49 () (_ BitVec 64))
(declare-fun temp682_51 () (_ BitVec 64))
(declare-fun var14885909 () (_ BitVec 64))
(declare-fun var14951456 () (_ BitVec 64))
(declare-fun var14753310 () (_ BitVec 64))
(declare-fun temp682_52 () (_ BitVec 64))
(declare-fun var15347757 () (_ BitVec 64))
(declare-fun temp682_53 () (_ BitVec 64))
(declare-fun var15413293 () (_ BitVec 64))
(declare-fun temp682_54 () (_ BitVec 64))
(declare-fun var15937581 () (_ BitVec 64))
(declare-fun temp682_56 () (_ BitVec 64))
(declare-fun temp682_55 () (_ BitVec 64))
(declare-fun temp682_57 () (_ BitVec 64))
(declare-fun var17049762 () (_ BitVec 64))
(declare-fun temp682_58 () (_ BitVec 64))
(declare-fun var17704007 () (_ BitVec 64))
(declare-fun temp682_60 () (_ BitVec 64))
(declare-fun temp682_59 () (_ BitVec 64))
(declare-fun temp682_61 () (_ BitVec 64))
(declare-fun var18686997 () (_ BitVec 64))
(declare-fun var18752544 () (_ BitVec 64))
(declare-fun temp682_62 () (_ BitVec 64))
(declare-fun var16258794 () (_ BitVec 64))
(declare-fun var16258764 () (_ BitVec 64))
(declare-fun var16258763 () (_ BitVec 64))
(declare-fun temp682_64 () (_ BitVec 64))
(declare-fun temp682_63 () (_ BitVec 64))
(declare-fun temp682_66 () (_ BitVec 64))
(declare-fun temp682_65 () (_ BitVec 64))
(declare-fun temp682_67 () (_ BitVec 64))
(declare-fun var16259205 () (_ BitVec 64))
(declare-fun var16259284 () (_ BitVec 64))
(declare-fun var16259320 () (_ BitVec 64))
(declare-fun temp682_68 () (_ BitVec 64))
(declare-fun var16259304 () (_ BitVec 64))
(declare-fun var16259303 () (_ BitVec 64))
(declare-fun temp682_70 () (_ BitVec 64))
(declare-fun temp682_69 () (_ BitVec 64))
(declare-fun temp682_72 () (_ BitVec 64))
(declare-fun temp682_71 () (_ BitVec 64))
(assert (= var76923 (bvadd ARGNAME_expand1_NAMEEND_LEN ARGNAME_i1_NAMEEND_DIM)))
(assert (= var76924
   (ite (bvsle var76923 ARGNAME_unroll_dim_NAMEEND)
        #x0000000000000001
        #x0000000000000000)))
(assert (= var76925 var76924))
(assert (= temp682_1 #x000000000000003f))
(assert (= var76926 (bvlshr ARGNAME_unroll_dim_NAMEEND temp682_1)))
(assert (= var76927 (bvor var76926 var76925)))
(assert (= temp682_2 #x0000000000000000))
(assert (= var76928 (ite (= var76927 temp682_2) #x0000000000000001 #x0000000000000000)))
(assert (= temp682_3 #x0000000000000001))
(assert (= var76928 temp682_3))
(assert (= var269666 var76923))
(assert (= temp682_4 #x0000000000000040))
(assert (= var269695
   (ite (bvsgt var269666 temp682_4) #x0000000000000001 #x0000000000000000)))
(assert (= temp682_5 #x0000000000000000))
(assert (= var269695 temp682_5))
(assert (= temp682_7 #x0000000000000000))
(assert (= temp682_6 temp682_7))
(assert (= temp682_9 #x0000000000000000))
(assert (= temp682_8 temp682_9))
(assert (= temp682_10 #x0000000000000000))
(assert (= var862370 temp682_10))
(assert (= var927917 var862370))
(assert (= temp682_11 #x0000000000000001))
(assert (= var1713223 temp682_11))
(assert (= var2104674 var76923))
(assert (= temp682_12 #x0000000000000040))
(assert (= var2104703
   (ite (bvsgt var2104674 temp682_12) #x0000000000000001 #x0000000000000000)))
(assert (= temp682_13 #x0000000000000000))
(assert (= var2104703 temp682_13))
(assert (= temp682_15 #x0000000000000000))
(assert (= temp682_14 temp682_15))
(assert (= temp682_17 #x0000000000000000))
(assert (= temp682_16 temp682_17))
(assert (= temp682_18 #x0000000000000000))
(assert (= var2697378 temp682_18))
(assert (= var2762925 var2697378))
(assert (= temp682_19 #x0000000000000001))
(assert (= var3548231 temp682_19))
(assert (= var3939682 var76923))
(assert (= temp682_20 #x0000000000000040))
(assert (= var3939711
   (ite (bvsgt var3939682 temp682_20) #x0000000000000001 #x0000000000000000)))
(assert (= temp682_21 #x0000000000000000))
(assert (= var3939711 temp682_21))
(assert (= temp682_23 #x0000000000000000))
(assert (= temp682_22 temp682_23))
(assert (= temp682_25 #x0000000000000000))
(assert (= temp682_24 temp682_25))
(assert (= temp682_26 #x0000000000000000))
(assert (= var4532386 temp682_26))
(assert (= var4597933 var4532386))
(assert (= temp682_27 #x0000000000000001))
(assert (= var5383239 temp682_27))
(assert (= var5774690 var76923))
(assert (= temp682_28 #x0000000000000040))
(assert (= var5774719
   (ite (bvsgt var5774690 temp682_28) #x0000000000000001 #x0000000000000000)))
(assert (= temp682_29 #x0000000000000000))
(assert (= var5774719 temp682_29))
(assert (= temp682_31 #x0000000000000000))
(assert (= temp682_30 temp682_31))
(assert (= temp682_33 #x0000000000000000))
(assert (= temp682_32 temp682_33))
(assert (= temp682_34 #x0000000000000000))
(assert (= var6367394 temp682_34))
(assert (= var6432941 var6367394))
(assert (= temp682_35 #x0000000000000001))
(assert (= var7218247 temp682_35))
(assert (= var8461836 var76923))
(assert (= temp682_37 #x0000000000000000))
(assert (= temp682_36 temp682_37))
(assert (= var8524787 var8461836))
(assert (= var8524788
   (ite (bvslt temp682_36 var8524787) #x0000000000000001 #x0000000000000000)))
(assert (= temp682_38 (ite (= var8524788 #x0000000000000001) var8461836 temp682_36)))
(assert (= temp682_39 #x0000000000000000))
(assert (= var8594453 temp682_39))
(assert (= var8660000 var8594453))
(assert (= var8461854 var8660000))
(assert (= temp682_40 #xffffffffffffffff))
(assert (= var77094 temp682_40))
(assert (= temp682_41 #x0000000000000000))
(assert (= var77135 temp682_41))
(assert (= var77169 var77135))
(assert (= var77223 var77169))
(assert (= temp682_42 #x0000000000000001))
(assert (= var11608541 temp682_42))
(assert (= temp682_43 #x0000000000000000))
(assert (= var77268
   (ite (= ARGNAME_i1_NAMEEND_NUMELEMENT temp682_43)
        #x0000000000000001
        #x0000000000000000)))
(assert (= temp682_44 #x0000000000000000))
(assert (= var77268 temp682_44))
(assert (= temp682_45 #x0000000000000000))
(assert (= var77272
   (ite (= ARGNAME_i2_NAMEEND_NUMELEMENT temp682_45)
        #x0000000000000001
        #x0000000000000000)))
(assert (= temp682_46 #x0000000000000000))
(assert (= var77272 temp682_46))
(assert (= temp682_47 #x0000000000000000))
(assert (= var77276
   (ite (= ARGNAME_i3_NAMEEND_NUMELEMENT temp682_47)
        #x0000000000000001
        #x0000000000000000)))
(assert (= temp682_48 #x0000000000000000))
(assert (= var77276 temp682_48))
(assert (= temp682_50 #x0000000000000000))
(assert (= temp682_49 temp682_50))
(assert (= temp682_51 #x0000000000000000))
(assert (= var14885909 temp682_51))
(assert (= var14951456 var14885909))
(assert (= var14753310 var14951456))
(assert (= temp682_52 #x0000000000000001))
(assert (= var15347757 temp682_52))
(assert (= temp682_53 #x0000000000000001))
(assert (= var15413293 temp682_53))
(assert (= temp682_54 #x0000000000000001))
(assert (= var15937581 temp682_54))
(assert (= temp682_56 #x0000000000000000))
(assert (= temp682_55 temp682_56))
(assert (= temp682_57 #x0000000000000000))
(assert (= var17049762 temp682_57))
(assert (= temp682_58 #x0000000000000001))
(assert (= var17704007 temp682_58))
(assert (= temp682_60 #x0000000000000000))
(assert (= temp682_59 temp682_60))
(assert (= temp682_61 #x0000000000000000))
(assert (= var18686997 temp682_61))
(assert (= var18752544 var18686997))
(assert (= temp682_62 #x0000000000000001))
(assert (= var16258794 temp682_62))
(assert (= var16258764 var16258794))
(assert (= var16258763 var16258764))
(assert (= temp682_64 #x0000000000000001))
(assert (= temp682_63 temp682_64))
(assert (= temp682_66 #xffffffffffffffff))
(assert (= temp682_65 temp682_66))
(assert (= temp682_67 #x0000000000000000))
(assert (= var16259205 temp682_67))
(assert (= var16259284 var16259205))
(assert (= var16259320 var16259284))
(assert (= temp682_68 #x0000000000000001))
(assert (= var16259304 (bvadd var16259320 temp682_68)))
(assert (= var16259303 var16259304))
(assert (= temp682_70 #x0000000000000003))
(assert (= temp682_69 temp682_70))
(assert (= temp682_72 #x0000000000000003))
(assert (= temp682_71 temp682_72))
(model-add var76923
           ()
           (_ BitVec 64)
           (bvadd ARGNAME_expand1_NAMEEND_LEN ARGNAME_i1_NAMEEND_DIM))
(model-add var76924
           ()
           (_ BitVec 64)
           (ite (bvsle (bvadd ARGNAME_expand1_NAMEEND_LEN
                              ARGNAME_i1_NAMEEND_DIM)
                       ARGNAME_unroll_dim_NAMEEND)
                #x0000000000000001
                #x0000000000000000))
(model-add var76925
           ()
           (_ BitVec 64)
           (ite (bvsle (bvadd ARGNAME_expand1_NAMEEND_LEN
                              ARGNAME_i1_NAMEEND_DIM)
                       ARGNAME_unroll_dim_NAMEEND)
                #x0000000000000001
                #x0000000000000000))
(model-add temp682_1 () (_ BitVec 64) #x000000000000003f)
(model-add var76926
           ()
           (_ BitVec 64)
           (concat #b000000000000000000000000000000000000000000000000000000000000000
                   ((_ extract 63 63) ARGNAME_unroll_dim_NAMEEND)))
(model-add var76927
           ()
           (_ BitVec 64)
           (bvor (concat #b000000000000000000000000000000000000000000000000000000000000000
                         ((_ extract 63 63) ARGNAME_unroll_dim_NAMEEND))
                 (ite (bvsle (bvadd ARGNAME_expand1_NAMEEND_LEN
                                    ARGNAME_i1_NAMEEND_DIM)
                             ARGNAME_unroll_dim_NAMEEND)
                      #x0000000000000001
                      #x0000000000000000)))
(model-add temp682_2 () (_ BitVec 64) #x0000000000000000)
(model-add temp682_3 () (_ BitVec 64) #x0000000000000001)
(model-add var76928 () (_ BitVec 64) #x0000000000000001)
(model-del k!0)
(model-add ARGNAME_expand1_NAMEEND_LEN
           ()
           (_ BitVec 64)
           (bvsub k!0 ARGNAME_i1_NAMEEND_DIM))
(model-del k!1)
(model-add k!0
           ()
           (_ BitVec 64)
           (ite (or k!1 (= ARGNAME_unroll_dim_NAMEEND #x7fffffffffffffff))
                ARGNAME_unroll_dim_NAMEEND
                (bvadd ARGNAME_unroll_dim_NAMEEND #x0000000000000001)))




